Version identifier: 22.1.0.0 | 2022-03-09 | 1a383f8ce
CPXPARAM_Read_DataCheck                          1
1 of 1 MIP starts provided solutions.
MIP start 'm1' defined initial solution with objective 58.0000.
Tried aggregator 3 times.
MIP Presolve eliminated 81710 rows and 7353 columns.
MIP Presolve modified 991 coefficients.
Aggregator did 75640 substitutions.
Reduced MIP has 8376 rows, 77783 columns, and 164091 nonzeros.
Reduced MIP has 77747 binaries, 36 generals, 0 SOSs, and 0 indicators.
Presolve time = 0.91 sec. (926.92 ticks)
Tried aggregator 1 time.
Detecting symmetries...
Reduced MIP has 8376 rows, 77783 columns, and 164091 nonzeros.
Reduced MIP has 77747 binaries, 36 generals, 0 SOSs, and 0 indicators.
Presolve time = 0.16 sec. (122.78 ticks)
Probing fixed 54 vars, tightened 0 bounds.
Probing changed sense of 13 constraints.
Probing time = 0.15 sec. (19.54 ticks)
Clique table members: 157678.
MIP emphasis: balance optimality and feasibility.
MIP search method: dynamic search.
Parallel mode: deterministic, using up to 8 threads.
Root relaxation solution time = 0.76 sec. (575.29 ticks)

        Nodes                                         Cuts/
   Node  Left     Objective  IInf  Best Integer    Best Bound    ItCnt     Gap

*     0+    0                           58.0000        0.0000           100.00%
      0     0       36.3974  6117       58.0000       36.3974       27   37.25%
      0     0        cutoff             58.0000                    182    0.00%
Elapsed time = 5.54 sec. (4019.56 ticks, tree = 0.01 MB, solutions = 1)

Zero-half cuts applied:  14
Gomory fractional cuts applied:  22

Root node processing (before b&c):
  Real time             =    5.54 sec. (4025.03 ticks)
Parallel b&c, 8 threads:
  Real time             =    0.00 sec. (0.00 ticks)
  Sync time (average)   =    0.00 sec.
  Wait time (average)   =    0.00 sec.
                          ------------
Total (root+branch&cut) =    5.54 sec. (4025.03 ticks)
